(set-logic QF_LIA)
(set-info :ran/ran6.smt2)
(set-info :smt-lib-version 2.0)
(declare-fun x0 () Int)
(declare-fun x1 () Int)
(declare-fun x2 () Int)
(declare-fun x3 () Int)
(declare-fun x4 () Int)
(declare-fun x5 () Int)
(define-fun ie0 () Bool (<= (+ (* 87 x2) (* 52 x4) ) (- 27)))
(define-fun ie1 () Bool (<= (+ (* (- 31) x5) (* (- 61) x1) (* (- 96) x4) (* 92 x0) ) (- 11)))
(define-fun ie2 () Bool (<= (+ (* 38 x0) (* 27 x3) (* 90 x1) ) 4))
(define-fun ie3 () Bool (<= (+ (* 2 x5) (* 15 x2) (* (- 69) x0) ) 3))
(define-fun ie4 () Bool (<= (+ (* (- 90) x5) (* 68 x2) (* 52 x3) (* 25 x2) ) 68))
(define-fun ie5 () Bool (<= (+ (* 76 x4) (* (- 53) x4) (* (- 10) x5) ) (- 60)))
(assert ie0)
(assert ie1)
(assert ie2)
(assert ie3)
(assert ie4)
(assert ie5)
(check-sat)
(exit)
